
        $ From http://www.csplib.org/Problems/prob009/data/helmut.pdf
        $ Problem number 151
        $ Sequence length : 25
        language ESSENCE' 1.0
        letting sizemaster be 512
        letting sizes be sequence(1,6,7,8,9,13,17,19,35,45,47,57,62,73,88,93,104,107,128,130,151,163,184,198,221)
        